NAME : tsp25_22.174.tour
COMMENT : Length = 174
COMMENT : Found by LKH [Keld Helsgaun]
TYPE : TOUR
DIMENSION : 25
TOUR_SECTION
1
20
18
24
16
3
5
10
22
12
17
21
9
2
13
6
11
19
15
4
25
7
8
14
23
-1
EOF
